c This is a CNF SAT formula in the DIMACS CNF format,
c produced with the bc2cnf translator by Tommi Junttila;
c see http://users.ics.aalto.fi/tjunttil/circuits/index.html
c phi_Gamma <-> 1
c phi_T_transitions <-> 1
c phi_T_transitions_consistency <-> 1
c phi_T <-> 1
c phi_sim_leaves <-> 1
c phi_sim_transition <-> 1
c phi_sim <-> 1
c FORMULA <-> 1
c pi_0_7 <-> 2
c pi_0_13 <-> 2
c pi_0_15 <-> 2
c pi_0_24 <-> 2
c pi_0_23 <-> 17
c pi_0_22 <-> 23
c pi_0_6 <-> 27
c pi_0_21 <-> 27
c pi_0_20 <-> 29
c pi_0_19 <-> 44
c pi_0_18 <-> 46
c pi_0_17 <-> 51
c pi_0_16 <-> 54
c pi_0_9 <-> 55
c pi_0_14 <-> 55
c pi_0_12 <-> 57
c pi_0_11 <-> 58
c pi_0_10 <-> 59
c pi_0_8 <-> 60
c pi_0_3 <-> 64
c pi_0_5 <-> 64
c pi_0_4 <-> 66
c pi_0_2 <-> 72
c pi_0_1 <-> 73
c pi_0_0 <-> 75
c alp_approved_0_0 <-> 77
c alp_approved_1_1 <-> 77
c alp_approved_1_2 <-> 77
c alp_approved_1_3 <-> 77
c alp_approved_0_4 <-> 77
c alp_approved_1_5 <-> 77
c alp_approved_1_6 <-> 77
c alp_approved_1_7 <-> 77
c alp_approved_1_8 <-> 77
c alp_approved_1_9 <-> 77
c alp_approved_1_10 <-> 77
c alp_approved_1_11 <-> 77
c alp_approved_1_12 <-> 77
c alp_approved_1_13 <-> 77
c alp_approved_1_14 <-> 77
c alp_approved_1_15 <-> 77
c alp_approved_1_16 <-> 77
c alp_approved_1_17 <-> 77
c alp_approved_1_18 <-> 77
c alp_approved_1_19 <-> 77
c alp_approved_0_20 <-> 77
c alp_approved_1_21 <-> 77
c alp_approved_1_22 <-> 77
c alp_approved_1_23 <-> 77
c alp_approved_1_24 <-> 77
c alp_approved_0_1 <-> 78
c alp_approved_0_2 <-> 78
c alp_approved_0_3 <-> 78
c alp_approved_0_5 <-> 78
c alp_approved_0_6 <-> 78
c alp_approved_0_7 <-> 78
c alp_approved_0_8 <-> 78
c alp_approved_0_9 <-> 78
c alp_approved_0_10 <-> 78
c alp_approved_0_11 <-> 78
c alp_approved_0_12 <-> 78
c alp_approved_0_13 <-> 78
c alp_approved_0_14 <-> 78
c alp_approved_0_15 <-> 78
c alp_approved_0_16 <-> 78
c alp_approved_0_17 <-> 78
c alp_approved_0_18 <-> 78
c alp_approved_0_19 <-> 78
c alp_approved_0_21 <-> 78
c alp_approved_0_22 <-> 78
c alp_approved_0_23 <-> 78
c alp_approved_0_24 <-> 78
c approved_P0 <-> 78
c alp_approved_1_0 <-> 79
c alp_approved_1_4 <-> 79
c alp_approved_1_20 <-> 79
c approved_P100 <-> 79
c tau_0_3_approved_1 <-> 106
c tau_0_3_approved_0 <-> 107
c tau_0_2_approved_1 <-> 108
c tau_0_2_approved_0 <-> 109
c tau_0_1_approved_1 <-> 110
c tau_0_1_approved_0 <-> 111
c tau_0_0_approved_1 <-> 112
c tau_0_0_approved_0 <-> 113
c phi_T_feature_det <-> 114
c lam_0_credit_score <-> 127
c lam_0_dependents <-> 129
c lam_0_monthly_income <-> 131
c lam_0_age <-> 132
p wcnf 132 402 26  
26 1 0
26 2 -3 0
26 2 -6 0
26 -2 6 3 0
1 2 0
26 -3 4 0
26 -3 127 0
26 3 -127 -4 0
26 -4 -108 0
26 -4 5 0
26 4 -5 108 0
26 5 109 0
26 5 -78 0
26 -5 78 -109 0
26 6 -7 0
26 6 -10 0
26 -6 10 7 0
26 -7 8 0
26 -7 129 0
26 7 -129 -8 0
26 -8 -110 0
26 -8 9 0
26 8 -9 110 0
26 9 111 0
26 9 -78 0
26 -9 78 -111 0
26 10 -11 0
26 10 -14 0
26 -10 14 11 0
26 -11 12 0
26 -11 131 0
26 11 -131 -12 0
26 -12 -112 0
26 -12 13 0
26 12 -13 112 0
26 13 113 0
26 13 -78 0
26 -13 78 -113 0
26 -14 15 0
26 -14 132 0
26 14 -132 -15 0
26 -15 -106 0
26 -15 16 0
26 15 -16 106 0
26 16 107 0
26 16 -78 0
26 -16 78 -107 0
26 17 -18 0
26 17 -19 0
26 -17 19 18 0
1 17 0
26 -18 12 0
26 -18 127 0
26 18 -127 -12 0
26 19 -7 0
26 19 -20 0
26 -19 20 7 0
26 20 -21 0
26 20 -22 0
26 -20 22 21 0
26 -21 8 0
26 -21 131 0
26 21 -131 -8 0
26 -22 8 0
26 -22 132 0
26 22 -132 -8 0
26 23 -3 0
26 23 -24 0
26 -23 24 3 0
1 23 0
26 24 -25 0
26 24 -26 0
26 -24 26 25 0
26 -25 12 0
26 -25 129 0
26 25 -129 -12 0
26 26 -11 0
26 26 -22 0
26 -26 22 11 0
26 27 -18 0
26 27 -28 0
26 -27 28 18 0
1 27 0
26 28 -7 0
26 28 -26 0
26 -28 26 7 0
26 29 -30 0
26 29 -33 0
26 -29 33 30 0
1 29 0
26 -30 31 0
26 -30 127 0
26 30 -127 -31 0
26 -31 -109 0
26 -31 32 0
26 31 -32 109 0
26 32 108 0
26 32 -79 0
26 -32 79 -108 0
26 33 -34 0
26 33 -37 0
26 -33 37 34 0
26 -34 35 0
26 -34 129 0
26 34 -129 -35 0
26 -35 -113 0
26 -35 36 0
26 35 -36 113 0
26 36 112 0
26 36 -79 0
26 -36 79 -112 0
26 37 -38 0
26 37 -41 0
26 -37 41 38 0
26 -38 39 0
26 -38 131 0
26 38 -131 -39 0
26 -39 -111 0
26 -39 40 0
26 39 -40 111 0
26 40 110 0
26 40 -79 0
26 -40 79 -110 0
26 -41 42 0
26 -41 132 0
26 41 -132 -42 0
26 -42 -107 0
26 -42 43 0
26 42 -43 107 0
26 43 106 0
26 43 -79 0
26 -43 79 -106 0
26 44 -18 0
26 44 -45 0
26 -44 45 18 0
1 44 0
26 45 -10 0
26 45 -25 0
26 -45 25 10 0
26 46 -47 0
26 46 -48 0
26 -46 48 47 0
1 46 0
26 -47 8 0
26 -47 127 0
26 47 -127 -8 0
26 48 -7 0
26 48 -49 0
26 -48 49 7 0
26 49 -21 0
26 49 -50 0
26 -49 50 21 0
26 -50 12 0
26 -50 132 0
26 50 -132 -12 0
26 51 -18 0
26 51 -52 0
26 -51 52 18 0
1 51 0
26 52 -7 0
26 52 -53 0
26 -52 53 7 0
26 53 -11 0
26 53 -50 0
26 -53 50 11 0
26 54 -3 0
26 54 -52 0
26 -54 52 3 0
1 54 0
26 55 -47 0
26 55 -56 0
26 -55 56 47 0
1 55 0
26 56 -25 0
26 56 -49 0
26 -56 49 25 0
26 57 -6 0
26 57 -47 0
26 -57 47 6 0
1 57 0
26 58 -3 0
26 58 -48 0
26 -58 48 3 0
1 58 0
26 59 -3 0
26 59 -45 0
26 -59 45 3 0
1 59 0
26 60 -3 0
26 60 -61 0
26 -60 61 3 0
1 60 0
26 61 -7 0
26 61 -62 0
26 -61 62 7 0
26 62 -11 0
26 62 -63 0
26 -62 63 11 0
26 -63 4 0
26 -63 132 0
26 63 -132 -4 0
26 64 -47 0
26 64 -65 0
26 -64 65 47 0
1 64 0
26 65 -25 0
26 65 -53 0
26 -65 53 25 0
26 66 -67 0
26 66 -68 0
26 -66 68 67 0
1 66 0
26 -67 39 0
26 -67 127 0
26 67 -127 -39 0
26 68 -69 0
26 68 -70 0
26 -68 70 69 0
26 -69 39 0
26 -69 129 0
26 69 -129 -39 0
26 70 -38 0
26 70 -71 0
26 -70 71 38 0
26 -71 31 0
26 -71 132 0
26 71 -132 -31 0
26 72 -18 0
26 72 -24 0
26 -72 24 18 0
1 72 0
26 73 -18 0
26 73 -74 0
26 -73 74 18 0
1 73 0
26 74 -20 0
26 74 -25 0
26 -74 25 20 0
26 75 -33 0
26 75 -76 0
26 -75 76 33 0
1 75 0
26 -76 35 0
26 -76 127 0
26 76 -127 -35 0
26 -77 0
26 80 127 0
26 80 -81 0
26 -80 81 -127 0
26 80 0
26 -81 -106 0
26 -81 -107 0
26 81 107 106 0
26 82 129 0
26 82 -83 0
26 -82 83 -129 0
26 82 0
26 -83 -106 0
26 -83 84 0
26 83 -84 106 0
26 -84 -107 0
26 -84 85 0
26 84 -85 107 0
26 -85 -108 0
26 -85 -109 0
26 85 109 108 0
26 86 -83 0
26 86 131 0
26 -86 -131 83 0
26 86 0
26 87 127 0
26 87 -88 0
26 -87 88 -127 0
26 87 0
26 -88 89 0
26 -88 92 0
26 88 -92 -89 0
26 89 -90 0
26 89 -91 0
26 -89 91 90 0
26 -90 -109 0
26 -90 108 0
26 90 -108 109 0
26 -91 -108 0
26 -91 109 0
26 91 -109 108 0
26 -92 93 0
26 -92 96 0
26 92 -96 -93 0
26 93 -94 0
26 93 -95 0
26 -93 95 94 0
26 -94 -111 0
26 -94 110 0
26 94 -110 111 0
26 -95 -110 0
26 -95 111 0
26 95 -111 110 0
26 96 -97 0
26 96 -98 0
26 -96 98 97 0
26 -97 -113 0
26 -97 112 0
26 97 -112 113 0
26 -98 -112 0
26 -98 113 0
26 98 -113 112 0
26 99 129 0
26 99 -92 0
26 -99 92 -129 0
26 99 0
26 100 131 0
26 100 -92 0
26 -100 92 -131 0
26 100 0
26 101 132 0
26 101 -102 0
26 -101 102 -132 0
26 101 0
26 -102 88 0
26 -102 103 0
26 102 -103 -88 0
26 103 -104 0
26 103 -105 0
26 -103 105 104 0
26 -104 -107 0
26 -104 106 0
26 104 -106 107 0
26 -105 -106 0
26 -105 107 0
26 105 -107 106 0
26 114 -115 0
26 114 -118 0
26 -114 118 115 0
26 114 0
26 -115 -129 0
26 -115 116 0
26 115 -116 129 0
26 -116 -131 0
26 -116 117 0
26 116 -117 131 0
26 -117 -132 0
26 -117 127 0
26 117 -127 132 0
26 118 -119 0
26 118 -122 0
26 -118 122 119 0
26 -119 -127 0
26 -119 120 0
26 119 -120 127 0
26 -120 -131 0
26 -120 121 0
26 120 -121 131 0
26 -121 -132 0
26 -121 129 0
26 121 -129 132 0
26 122 -123 0
26 122 -126 0
26 -122 126 123 0
26 -123 -127 0
26 -123 124 0
26 123 -124 127 0
26 -124 -129 0
26 -124 125 0
26 124 -125 129 0
26 -125 -132 0
26 -125 131 0
26 125 -131 132 0
26 -126 -127 0
26 -126 128 0
26 126 -128 127 0
26 -128 -129 0
26 -128 130 0
26 128 -130 129 0
26 -130 -131 0
26 -130 132 0
26 130 -132 131 0
